************************************************************************
file with basedata            : md188_.bas
initial value random generator: 651930760
************************************************************************
projects                      :  1
jobs (incl. supersource/sink ):  16
horizon                       :  108
RESOURCES
  - renewable                 :  2   R
  - nonrenewable              :  2   N
  - doubly constrained        :  0   D
************************************************************************
PROJECT INFORMATION:
pronr.  #jobs rel.date duedate tardcost  MPM-Time
    1     14      0       12       13       12
************************************************************************
PRECEDENCE RELATIONS:
jobnr.    #modes  #successors   successors
   1        1          3           2   3   4
   2        3          1           8
   3        3          3          10  11  12
   4        3          2           5   6
   5        3          2           9  10
   6        3          3           7   8  14
   7        3          3           9  10  12
   8        3          3          11  12  13
   9        3          2          11  13
  10        3          2          13  15
  11        3          1          15
  12        3          1          15
  13        3          1          16
  14        3          1          16
  15        3          1          16
  16        1          0        
************************************************************************
REQUESTS/DURATIONS:
jobnr. mode duration  R 1  R 2  N 1  N 2
------------------------------------------------------------------------
  1      1     0       0    0    0    0
  2      1     1       0    5    3    6
         2     2       5    0    2    3
         3     9       0    5    2    3
  3      1     2       0    4   10    5
         2     3      10    0   10    3
         3     7       7    0    9    1
  4      1     1       0    5    6    7
         2     4       6    0    6    7
         3     7       0    4    6    6
  5      1     4       5    0    1    8
         2     7       0    3    1    7
         3     8       5    0    1    7
  6      1     1       0   10    7    6
         2     2       6    0    5    5
         3     5       5    0    3    5
  7      1     1       0    1    5    9
         2     2       0    1    4    9
         3     9       6    0    1    9
  8      1     3      10    0    9    7
         2     5       8    0    5    7
         3     7       5    0    5    7
  9      1     4       4    0   10   10
         2     5       0    9    9    8
         3    10       0    9    9    6
 10      1     3       0    4    1    9
         2     5       8    0    1    8
         3     9       0    4    1    8
 11      1     1       2    0    3    7
         2     6       0    9    2    7
         3    10       0    9    1    6
 12      1     4       3    0    5    8
         2     8       0    5    3    6
         3     9       3    0    3    6
 13      1     3       0    3    4    8
         2     4       0    2    3    5
         3     7       6    0    2    4
 14      1     2       9    0    9    5
         2     3       8    0    9    3
         3     8       5    0    7    3
 15      1     1       0    6    6    9
         2     1       6    0    6   10
         3     3       6    0    5    8
 16      1     0       0    0    0    0
************************************************************************
RESOURCEAVAILABILITIES:
  R 1  R 2  N 1  N 2
   30   18   79  105
************************************************************************
